
Gurobi 6.0.5 (linux64) logging started Mon Oct 23 09:40:48 2017


Gurobi 6.0.5 (linux64) logging started Mon Oct 23 09:41:27 2017


Gurobi 6.0.5 (linux64) logging started Mon Oct 23 09:41:40 2017


Gurobi 6.0.5 (linux64) logging started Mon Oct 23 09:42:19 2017


Gurobi 6.0.5 (linux64) logging started Mon Oct 23 09:42:33 2017


Gurobi 6.0.5 (linux64) logging started Mon Oct 23 09:43:11 2017


Gurobi 7.5.1 (linux64, Python) logging started Mon Oct 23 16:55:59 2017

Academic license - for non-commercial use only
Changed value of parameter LogToConsole to 0
   Prev: 1  Min: 0  Max: 1  Default: 1

Gurobi 7.5.1 (linux64, Python) logging started Mon Oct 23 16:58:34 2017

Academic license - for non-commercial use only
Changed value of parameter LogToConsole to 0
   Prev: 1  Min: 0  Max: 1  Default: 1

Gurobi 7.5.1 (linux64, Python) logging started Tue Oct 24 12:40:55 2017

Academic license - for non-commercial use only
Changed value of parameter LogToConsole to 0
   Prev: 1  Min: 0  Max: 1  Default: 1

Gurobi 7.5.1 (linux64, Python) logging started Tue Oct 24 12:43:34 2017

Academic license - for non-commercial use only
Changed value of parameter LogToConsole to 0
   Prev: 1  Min: 0  Max: 1  Default: 1

Gurobi 7.5.1 (linux64, Python) logging started Tue Oct 24 14:45:56 2017

Academic license - for non-commercial use only
Changed value of parameter LogToConsole to 0
   Prev: 1  Min: 0  Max: 1  Default: 1

Gurobi 7.5.1 (linux64, Python) logging started Tue Oct 24 14:46:28 2017

Academic license - for non-commercial use only
Changed value of parameter LogToConsole to 0
   Prev: 1  Min: 0  Max: 1  Default: 1

Gurobi 7.5.1 (linux64, Python) logging started Wed Oct 25 12:26:39 2017

Academic license - for non-commercial use only
Changed value of parameter LogToConsole to 0
   Prev: 1  Min: 0  Max: 1  Default: 1

Gurobi 7.5.1 (linux64, Python) logging started Wed Oct 25 12:27:09 2017

Academic license - for non-commercial use only
Changed value of parameter LogToConsole to 0
   Prev: 1  Min: 0  Max: 1  Default: 1
